c instance by G2
c solution = 11101101110100011
c Known solution cost is 797 
p cnf 17 30
w 53 45 11 32 37 93 48 59 0 30 83 26 91 84 11 73 21
13 -9 6 0
-3 -9 2 0
6 10 9 0
13 2 -14 0
16 -14 11 0
-5 -10 3 0
12 4 14 0
1 -10 -6 0
17 -5 -2 0
2 -6 14 0
-1 -7 16 0
13 16 -8 0
-4 14 3 0
8 -2 -17 0
-1 -4 12 0
-8 4 17 0
-16 -4 -6 0
-9 5 -17 0
-16 -17 -13 0
16 1 -13 0
9 17 -3 0
10 14 7 0
12 -17 -10 0
-7 4 11 0
13 8 -1 0
-15 -1 -6 0
4 -5 9 0
14 3 -10 0
-1 -11 -10 0
-12 -6 -14 0
